Problem:    auctioneer_wdp
Rows:       4
Columns:    3 (2 integer, 2 binary)
Non-zeros:  8
Status:     INTEGER OPTIMAL
Objective:  fin_profit = 0 (MAXimum)

   No.   Row name        Activity     Lower bound   Upper bound
------ ------------    ------------- ------------- -------------
     1 fin_profit                  0                             
     2 not_neg[s1]                 0            -0               
     3 not_neg[s2]                 0            -0               
     4 profit_calc                 0            -0               

   No. Column name       Activity     Lower bound   Upper bound
------ ------------    ------------- ------------- -------------
     1 accepted[b1] *              0             0             1 
     2 accepted[b2] *              0             0             1 
     3 worst_case_profit
                                   0                             

Integer feasibility conditions:

KKT.PE: max.abs.err = 0.00e+00 on row 0
        max.rel.err = 0.00e+00 on row 0
        High quality

KKT.PB: max.abs.err = 0.00e+00 on row 0
        max.rel.err = 0.00e+00 on row 0
        High quality

End of output
